53 40 13 97 100 37 59 94 
42 43 15 57 87 2 41 22 75 74 72 73 21 58 
52 18 83 45 46 36 48 88 7 82 8 47 49 19 10 20 66 71 35 68 80 77 28 
27 69 31 62 11 64 63 90 32 30 1 76 3 79 78 9 51 70 
50 33 81 65 34 29 24 39 67 23 56 4 55 25 54 12 26 
95 92 98 16 86 38 14 44 91 85 99 96 6 60 5 84 17 61 93 89 
